c generated by sgen
p cnf 73 156
-2 -3 -4 0
-1 -3 -4 0
-1 -2 -4 0
-1 -2 -3 0
-6 -7 -8 0
-5 -7 -8 0
-5 -6 -8 0
-5 -6 -7 0
-10 -11 -12 0
-9 -11 -12 0
-9 -10 -12 0
-9 -10 -11 0
-14 -15 -16 0
-13 -15 -16 0
-13 -14 -16 0
-13 -14 -15 0
-18 -19 -20 0
-17 -19 -20 0
-17 -18 -20 0
-17 -18 -19 0
-22 -23 -24 0
-21 -23 -24 0
-21 -22 -24 0
-21 -22 -23 0
-26 -27 -28 0
-25 -27 -28 0
-25 -26 -28 0
-25 -26 -27 0
-30 -31 -32 0
-29 -31 -32 0
-29 -30 -32 0
-29 -30 -31 0
-34 -35 -36 0
-33 -35 -36 0
-33 -34 -36 0
-33 -34 -35 0
-38 -39 -40 0
-37 -39 -40 0
-37 -38 -40 0
-37 -38 -39 0
-42 -43 -44 0
-41 -43 -44 0
-41 -42 -44 0
-41 -42 -43 0
-46 -47 -48 0
-45 -47 -48 0
-45 -46 -48 0
-45 -46 -47 0
-50 -51 -52 0
-49 -51 -52 0
-49 -50 -52 0
-49 -50 -51 0
-54 -55 -56 0
-53 -55 -56 0
-53 -54 -56 0
-53 -54 -55 0
-58 -59 -60 0
-57 -59 -60 0
-57 -58 -60 0
-57 -58 -59 0
-62 -63 -64 0
-61 -63 -64 0
-61 -62 -64 0
-61 -62 -63 0
-66 -67 -68 0
-65 -67 -68 0
-65 -66 -68 0
-65 -66 -67 0
-69 -70 -71 0
-69 -70 -72 0
-69 -70 -73 0
-69 -71 -72 0
-69 -71 -73 0
-69 -72 -73 0
-70 -71 -72 0
-70 -71 -73 0
-70 -72 -73 0
-71 -72 -73 0
30 7 51 0
53 7 51 0
53 30 51 0
53 30 7 0
41 20 55 0
46 20 55 0
46 41 55 0
46 41 20 0
25 60 49 0
35 60 49 0
35 25 49 0
35 25 60 0
1 31 17 0
26 31 17 0
26 1 17 0
26 1 31 0
62 40 22 0
18 40 22 0
18 62 22 0
18 62 40 0
56 4 16 0
65 4 16 0
65 56 16 0
65 56 4 0
23 5 12 0
68 5 12 0
68 23 12 0
68 23 5 0
38 58 67 0
45 58 67 0
45 38 67 0
45 38 58 0
11 50 61 0
44 50 61 0
44 11 61 0
44 11 50 0
72 66 52 0
19 66 52 0
19 72 52 0
19 72 66 0
29 33 47 0
63 33 47 0
63 29 47 0
63 29 33 0
64 8 59 0
14 8 59 0
14 64 59 0
14 64 8 0
21 54 34 0
73 54 34 0
73 21 34 0
73 21 54 0
2 43 57 0
69 43 57 0
69 2 57 0
69 2 43 0
10 15 70 0
32 15 70 0
32 10 70 0
32 10 15 0
13 27 24 0
42 27 24 0
42 13 24 0
42 13 27 0
3 36 37 0
9 36 37 0
9 3 37 0
9 3 36 0
28 48 39 0
28 48 6 0
28 48 71 0
28 39 6 0
28 39 71 0
28 6 71 0
48 39 6 0
48 39 71 0
48 6 71 0
39 6 71 0
